JulietBench/Juliet_Based_Patch_Bench/FFmpeg/CWE-189-Numeric-Errors/CVE_2013_7013_821a5938d100458f4d09d634041b05c860554ce0/solverg2m_init_buffers_Snippet.smt2
; benchmark generated from python API
(set-info :status unknown)
(declare-fun rdi () (_ BitVec 64))
(declare-fun R () (_ BitVec 32))
(assert
 (let ((?x6 ((_ extract 31 0) rdi)))
 (let ((?x24 (bvadd (_ bv15 32) ?x6)))
 (let ((?x42 ((_ extract 31 4) ?x24)))
 (let ((?x60 (concat ?x42 (_ bv0 4))))
 (let ((?x56 ((_ extract 30 4) ?x24)))
 (let ((?x55 (concat ?x56 (_ bv0 5))))
 (let ((?x62 (bvadd ?x55 ?x60)))
 (let (($x63 (and (distinct R ?x62) true)))
 (let ((?x29 (bvadd (bvadd (_ bv15 32) (concat ((_ extract 30 0) rdi) (_ bv0 1))) ?x6)))
 (let ((?x27 ((_ extract 31 4) ?x29)))
 (let ((?x32 (concat ?x27 (_ bv0 4))))
 (let (($x38 (and (distinct R ?x32) true)))
 (let (($x57 (and $x38 $x63)))
 (let (($x53 (= R ?x62)))
 (let (($x44 (= R ?x32)))
 (let (($x64 (and $x44 $x53)))
 (let (($x39 (or $x64 $x57)))
 (not $x39)))))))))))))))))))
(check-sat)
